p cnf 403 1056 
-6 4 5 0
6 -4 0
6 -5 0
-28 10 11 0
28 -10 0
28 -11 0
-26 22 23 0
26 -22 0
26 -23 0
-27 24 25 0
27 -24 0
27 -25 0
-12 26 27 0
12 -26 0
12 -27 0
7 -4 -5 0
-7 4 0
-7 5 0
10 -4 -5 0
-10 4 0
-10 5 0
11 -9 -3 0
-11 9 0
-11 3 0
16 -14 -7 0
-16 14 0
-16 7 0
18 -13 -6 0
-18 13 0
-18 6 0
19 -8 -1 0
-19 8 0
-19 1 0
21 -15 -1 0
-21 15 0
-21 1 0
22 -16 -17 0
-22 16 0
-22 17 0
23 -2 -18 0
-23 2 0
-23 18 0
24 -19 -20 0
-24 19 0
-24 20 0
25 -2 -21 0
-25 2 0
-25 21 0
-8 -4 0
8 4 0
-13 -1 0
13 1 0
-14 -1 0
14 1 0
-17 -2 0
17 2 0
-20 -2 0
20 2 0
-9 -4 -5 0
-9 4 5 0
9 -4 5 0
9 4 -5 0
-15 -3 -9 0
-15 3 9 0
15 -3 9 0
15 3 -9 0
-31 29 30 0
31 -29 0
31 -30 0
-53 35 36 0
53 -35 0
53 -36 0
-51 47 48 0
51 -47 0
51 -48 0
-52 49 50 0
52 -49 0
52 -50 0
-37 51 52 0
37 -51 0
37 -52 0
32 -29 -30 0
-32 29 0
-32 30 0
35 -29 -30 0
-35 29 0
-35 30 0
36 -34 -28 0
-36 34 0
-36 28 0
41 -39 -32 0
-41 39 0
-41 32 0
43 -38 -31 0
-43 38 0
-43 31 0
44 -33 -1 0
-44 33 0
-44 1 0
46 -40 -1 0
-46 40 0
-46 1 0
47 -41 -42 0
-47 41 0
-47 42 0
48 -2 -43 0
-48 2 0
-48 43 0
49 -44 -45 0
-49 44 0
-49 45 0
50 -2 -46 0
-50 2 0
-50 46 0
-33 -29 0
33 29 0
-38 -1 0
38 1 0
-39 -1 0
39 1 0
-42 -2 0
42 2 0
-45 -2 0
45 2 0
-34 -29 -30 0
-34 29 30 0
34 -29 30 0
34 29 -30 0
-40 -28 -34 0
-40 28 34 0
40 -28 34 0
40 28 -34 0
-56 54 55 0
56 -54 0
56 -55 0
-78 60 61 0
78 -60 0
78 -61 0
-76 72 73 0
76 -72 0
76 -73 0
-77 74 75 0
77 -74 0
77 -75 0
-62 76 77 0
62 -76 0
62 -77 0
57 -54 -55 0
-57 54 0
-57 55 0
60 -54 -55 0
-60 54 0
-60 55 0
61 -59 -53 0
-61 59 0
-61 53 0
66 -64 -57 0
-66 64 0
-66 57 0
68 -63 -56 0
-68 63 0
-68 56 0
69 -58 -1 0
-69 58 0
-69 1 0
71 -65 -1 0
-71 65 0
-71 1 0
72 -66 -67 0
-72 66 0
-72 67 0
73 -2 -68 0
-73 2 0
-73 68 0
74 -69 -70 0
-74 69 0
-74 70 0
75 -2 -71 0
-75 2 0
-75 71 0
-58 -54 0
58 54 0
-63 -1 0
63 1 0
-64 -1 0
64 1 0
-67 -2 0
67 2 0
-70 -2 0
70 2 0
-59 -54 -55 0
-59 54 55 0
59 -54 55 0
59 54 -55 0
-65 -53 -59 0
-65 53 59 0
65 -53 59 0
65 53 -59 0
-81 79 80 0
81 -79 0
81 -80 0
-103 85 86 0
103 -85 0
103 -86 0
-101 97 98 0
101 -97 0
101 -98 0
-102 99 100 0
102 -99 0
102 -100 0
-87 101 102 0
87 -101 0
87 -102 0
82 -79 -80 0
-82 79 0
-82 80 0
85 -79 -80 0
-85 79 0
-85 80 0
86 -84 -78 0
-86 84 0
-86 78 0
91 -89 -82 0
-91 89 0
-91 82 0
93 -88 -81 0
-93 88 0
-93 81 0
94 -83 -1 0
-94 83 0
-94 1 0
96 -90 -1 0
-96 90 0
-96 1 0
97 -91 -92 0
-97 91 0
-97 92 0
98 -2 -93 0
-98 2 0
-98 93 0
99 -94 -95 0
-99 94 0
-99 95 0
100 -2 -96 0
-100 2 0
-100 96 0
-83 -79 0
83 79 0
-88 -1 0
88 1 0
-89 -1 0
89 1 0
-92 -2 0
92 2 0
-95 -2 0
95 2 0
-84 -79 -80 0
-84 79 80 0
84 -79 80 0
84 79 -80 0
-90 -78 -84 0
-90 78 84 0
90 -78 84 0
90 78 -84 0
-106 104 105 0
106 -104 0
106 -105 0
-128 110 111 0
128 -110 0
128 -111 0
-126 122 123 0
126 -122 0
126 -123 0
-127 124 125 0
127 -124 0
127 -125 0
-112 126 127 0
112 -126 0
112 -127 0
107 -104 -105 0
-107 104 0
-107 105 0
110 -104 -105 0
-110 104 0
-110 105 0
111 -109 -103 0
-111 109 0
-111 103 0
116 -114 -107 0
-116 114 0
-116 107 0
118 -113 -106 0
-118 113 0
-118 106 0
119 -108 -1 0
-119 108 0
-119 1 0
121 -115 -1 0
-121 115 0
-121 1 0
122 -116 -117 0
-122 116 0
-122 117 0
123 -2 -118 0
-123 2 0
-123 118 0
124 -119 -120 0
-124 119 0
-124 120 0
125 -2 -121 0
-125 2 0
-125 121 0
-108 -104 0
108 104 0
-113 -1 0
113 1 0
-114 -1 0
114 1 0
-117 -2 0
117 2 0
-120 -2 0
120 2 0
-109 -104 -105 0
-109 104 105 0
109 -104 105 0
109 104 -105 0
-115 -103 -109 0
-115 103 109 0
115 -103 109 0
115 103 -109 0
-131 129 130 0
131 -129 0
131 -130 0
-153 135 136 0
153 -135 0
153 -136 0
-151 147 148 0
151 -147 0
151 -148 0
-152 149 150 0
152 -149 0
152 -150 0
-137 151 152 0
137 -151 0
137 -152 0
132 -129 -130 0
-132 129 0
-132 130 0
135 -129 -130 0
-135 129 0
-135 130 0
136 -134 -128 0
-136 134 0
-136 128 0
141 -139 -132 0
-141 139 0
-141 132 0
143 -138 -131 0
-143 138 0
-143 131 0
144 -133 -1 0
-144 133 0
-144 1 0
146 -140 -1 0
-146 140 0
-146 1 0
147 -141 -142 0
-147 141 0
-147 142 0
148 -2 -143 0
-148 2 0
-148 143 0
149 -144 -145 0
-149 144 0
-149 145 0
150 -2 -146 0
-150 2 0
-150 146 0
-133 -129 0
133 129 0
-138 -1 0
138 1 0
-139 -1 0
139 1 0
-142 -2 0
142 2 0
-145 -2 0
145 2 0
-134 -129 -130 0
-134 129 130 0
134 -129 130 0
134 129 -130 0
-140 -128 -134 0
-140 128 134 0
140 -128 134 0
140 128 -134 0
-156 154 155 0
156 -154 0
156 -155 0
-178 160 161 0
178 -160 0
178 -161 0
-176 172 173 0
176 -172 0
176 -173 0
-177 174 175 0
177 -174 0
177 -175 0
-162 176 177 0
162 -176 0
162 -177 0
157 -154 -155 0
-157 154 0
-157 155 0
160 -154 -155 0
-160 154 0
-160 155 0
161 -159 -153 0
-161 159 0
-161 153 0
166 -164 -157 0
-166 164 0
-166 157 0
168 -163 -156 0
-168 163 0
-168 156 0
169 -158 -1 0
-169 158 0
-169 1 0
171 -165 -1 0
-171 165 0
-171 1 0
172 -166 -167 0
-172 166 0
-172 167 0
173 -2 -168 0
-173 2 0
-173 168 0
174 -169 -170 0
-174 169 0
-174 170 0
175 -2 -171 0
-175 2 0
-175 171 0
-158 -154 0
158 154 0
-163 -1 0
163 1 0
-164 -1 0
164 1 0
-167 -2 0
167 2 0
-170 -2 0
170 2 0
-159 -154 -155 0
-159 154 155 0
159 -154 155 0
159 154 -155 0
-165 -153 -159 0
-165 153 159 0
165 -153 159 0
165 153 -159 0
-181 179 180 0
181 -179 0
181 -180 0
-203 185 186 0
203 -185 0
203 -186 0
-201 197 198 0
201 -197 0
201 -198 0
-202 199 200 0
202 -199 0
202 -200 0
-187 201 202 0
187 -201 0
187 -202 0
182 -179 -180 0
-182 179 0
-182 180 0
185 -179 -180 0
-185 179 0
-185 180 0
186 -184 -178 0
-186 184 0
-186 178 0
191 -189 -182 0
-191 189 0
-191 182 0
193 -188 -181 0
-193 188 0
-193 181 0
194 -183 -1 0
-194 183 0
-194 1 0
196 -190 -1 0
-196 190 0
-196 1 0
197 -191 -192 0
-197 191 0
-197 192 0
198 -2 -193 0
-198 2 0
-198 193 0
199 -194 -195 0
-199 194 0
-199 195 0
200 -2 -196 0
-200 2 0
-200 196 0
-183 -179 0
183 179 0
-188 -1 0
188 1 0
-189 -1 0
189 1 0
-192 -2 0
192 2 0
-195 -2 0
195 2 0
-184 -179 -180 0
-184 179 180 0
184 -179 180 0
184 179 -180 0
-190 -178 -184 0
-190 178 184 0
190 -178 184 0
190 178 -184 0
-206 204 205 0
206 -204 0
206 -205 0
-228 210 211 0
228 -210 0
228 -211 0
-226 222 223 0
226 -222 0
226 -223 0
-227 224 225 0
227 -224 0
227 -225 0
-212 226 227 0
212 -226 0
212 -227 0
207 -204 -205 0
-207 204 0
-207 205 0
210 -204 -205 0
-210 204 0
-210 205 0
211 -209 -203 0
-211 209 0
-211 203 0
216 -214 -207 0
-216 214 0
-216 207 0
218 -213 -206 0
-218 213 0
-218 206 0
219 -208 -1 0
-219 208 0
-219 1 0
221 -215 -1 0
-221 215 0
-221 1 0
222 -216 -217 0
-222 216 0
-222 217 0
223 -2 -218 0
-223 2 0
-223 218 0
224 -219 -220 0
-224 219 0
-224 220 0
225 -2 -221 0
-225 2 0
-225 221 0
-208 -204 0
208 204 0
-213 -1 0
213 1 0
-214 -1 0
214 1 0
-217 -2 0
217 2 0
-220 -2 0
220 2 0
-209 -204 -205 0
-209 204 205 0
209 -204 205 0
209 204 -205 0
-215 -203 -209 0
-215 203 209 0
215 -203 209 0
215 203 -209 0
-231 229 230 0
231 -229 0
231 -230 0
-253 235 236 0
253 -235 0
253 -236 0
-251 247 248 0
251 -247 0
251 -248 0
-252 249 250 0
252 -249 0
252 -250 0
-237 251 252 0
237 -251 0
237 -252 0
232 -229 -230 0
-232 229 0
-232 230 0
235 -229 -230 0
-235 229 0
-235 230 0
236 -234 -228 0
-236 234 0
-236 228 0
241 -239 -232 0
-241 239 0
-241 232 0
243 -238 -231 0
-243 238 0
-243 231 0
244 -233 -1 0
-244 233 0
-244 1 0
246 -240 -1 0
-246 240 0
-246 1 0
247 -241 -242 0
-247 241 0
-247 242 0
248 -2 -243 0
-248 2 0
-248 243 0
249 -244 -245 0
-249 244 0
-249 245 0
250 -2 -246 0
-250 2 0
-250 246 0
-233 -229 0
233 229 0
-238 -1 0
238 1 0
-239 -1 0
239 1 0
-242 -2 0
242 2 0
-245 -2 0
245 2 0
-234 -229 -230 0
-234 229 230 0
234 -229 230 0
234 229 -230 0
-240 -228 -234 0
-240 228 234 0
240 -228 234 0
240 228 -234 0
-256 254 255 0
256 -254 0
256 -255 0
-278 260 261 0
278 -260 0
278 -261 0
-276 272 273 0
276 -272 0
276 -273 0
-277 274 275 0
277 -274 0
277 -275 0
-262 276 277 0
262 -276 0
262 -277 0
257 -254 -255 0
-257 254 0
-257 255 0
260 -254 -255 0
-260 254 0
-260 255 0
261 -259 -253 0
-261 259 0
-261 253 0
266 -264 -257 0
-266 264 0
-266 257 0
268 -263 -256 0
-268 263 0
-268 256 0
269 -258 -1 0
-269 258 0
-269 1 0
271 -265 -1 0
-271 265 0
-271 1 0
272 -266 -267 0
-272 266 0
-272 267 0
273 -2 -268 0
-273 2 0
-273 268 0
274 -269 -270 0
-274 269 0
-274 270 0
275 -2 -271 0
-275 2 0
-275 271 0
-258 -254 0
258 254 0
-263 -1 0
263 1 0
-264 -1 0
264 1 0
-267 -2 0
267 2 0
-270 -2 0
270 2 0
-259 -254 -255 0
-259 254 255 0
259 -254 255 0
259 254 -255 0
-265 -253 -259 0
-265 253 259 0
265 -253 259 0
265 253 -259 0
-281 279 280 0
281 -279 0
281 -280 0
-303 285 286 0
303 -285 0
303 -286 0
-301 297 298 0
301 -297 0
301 -298 0
-302 299 300 0
302 -299 0
302 -300 0
-287 301 302 0
287 -301 0
287 -302 0
282 -279 -280 0
-282 279 0
-282 280 0
285 -279 -280 0
-285 279 0
-285 280 0
286 -284 -278 0
-286 284 0
-286 278 0
291 -289 -282 0
-291 289 0
-291 282 0
293 -288 -281 0
-293 288 0
-293 281 0
294 -283 -1 0
-294 283 0
-294 1 0
296 -290 -1 0
-296 290 0
-296 1 0
297 -291 -292 0
-297 291 0
-297 292 0
298 -2 -293 0
-298 2 0
-298 293 0
299 -294 -295 0
-299 294 0
-299 295 0
300 -2 -296 0
-300 2 0
-300 296 0
-283 -279 0
283 279 0
-288 -1 0
288 1 0
-289 -1 0
289 1 0
-292 -2 0
292 2 0
-295 -2 0
295 2 0
-284 -279 -280 0
-284 279 280 0
284 -279 280 0
284 279 -280 0
-290 -278 -284 0
-290 278 284 0
290 -278 284 0
290 278 -284 0
-306 304 305 0
306 -304 0
306 -305 0
-328 310 311 0
328 -310 0
328 -311 0
-326 322 323 0
326 -322 0
326 -323 0
-327 324 325 0
327 -324 0
327 -325 0
-312 326 327 0
312 -326 0
312 -327 0
307 -304 -305 0
-307 304 0
-307 305 0
310 -304 -305 0
-310 304 0
-310 305 0
311 -309 -303 0
-311 309 0
-311 303 0
316 -314 -307 0
-316 314 0
-316 307 0
318 -313 -306 0
-318 313 0
-318 306 0
319 -308 -1 0
-319 308 0
-319 1 0
321 -315 -1 0
-321 315 0
-321 1 0
322 -316 -317 0
-322 316 0
-322 317 0
323 -2 -318 0
-323 2 0
-323 318 0
324 -319 -320 0
-324 319 0
-324 320 0
325 -2 -321 0
-325 2 0
-325 321 0
-308 -304 0
308 304 0
-313 -1 0
313 1 0
-314 -1 0
314 1 0
-317 -2 0
317 2 0
-320 -2 0
320 2 0
-309 -304 -305 0
-309 304 305 0
309 -304 305 0
309 304 -305 0
-315 -303 -309 0
-315 303 309 0
315 -303 309 0
315 303 -309 0
-331 329 330 0
331 -329 0
331 -330 0
-353 335 336 0
353 -335 0
353 -336 0
-351 347 348 0
351 -347 0
351 -348 0
-352 349 350 0
352 -349 0
352 -350 0
-337 351 352 0
337 -351 0
337 -352 0
332 -329 -330 0
-332 329 0
-332 330 0
335 -329 -330 0
-335 329 0
-335 330 0
336 -334 -328 0
-336 334 0
-336 328 0
341 -339 -332 0
-341 339 0
-341 332 0
343 -338 -331 0
-343 338 0
-343 331 0
344 -333 -1 0
-344 333 0
-344 1 0
346 -340 -1 0
-346 340 0
-346 1 0
347 -341 -342 0
-347 341 0
-347 342 0
348 -2 -343 0
-348 2 0
-348 343 0
349 -344 -345 0
-349 344 0
-349 345 0
350 -2 -346 0
-350 2 0
-350 346 0
-333 -329 0
333 329 0
-338 -1 0
338 1 0
-339 -1 0
339 1 0
-342 -2 0
342 2 0
-345 -2 0
345 2 0
-334 -329 -330 0
-334 329 330 0
334 -329 330 0
334 329 -330 0
-340 -328 -334 0
-340 328 334 0
340 -328 334 0
340 328 -334 0
-356 354 355 0
356 -354 0
356 -355 0
-378 360 361 0
378 -360 0
378 -361 0
-376 372 373 0
376 -372 0
376 -373 0
-377 374 375 0
377 -374 0
377 -375 0
-362 376 377 0
362 -376 0
362 -377 0
357 -354 -355 0
-357 354 0
-357 355 0
360 -354 -355 0
-360 354 0
-360 355 0
361 -359 -353 0
-361 359 0
-361 353 0
366 -364 -357 0
-366 364 0
-366 357 0
368 -363 -356 0
-368 363 0
-368 356 0
369 -358 -1 0
-369 358 0
-369 1 0
371 -365 -1 0
-371 365 0
-371 1 0
372 -366 -367 0
-372 366 0
-372 367 0
373 -2 -368 0
-373 2 0
-373 368 0
374 -369 -370 0
-374 369 0
-374 370 0
375 -2 -371 0
-375 2 0
-375 371 0
-358 -354 0
358 354 0
-363 -1 0
363 1 0
-364 -1 0
364 1 0
-367 -2 0
367 2 0
-370 -2 0
370 2 0
-359 -354 -355 0
-359 354 355 0
359 -354 355 0
359 354 -355 0
-365 -353 -359 0
-365 353 359 0
365 -353 359 0
365 353 -359 0
-381 379 380 0
381 -379 0
381 -380 0
-403 385 386 0
403 -385 0
403 -386 0
-401 397 398 0
401 -397 0
401 -398 0
-402 399 400 0
402 -399 0
402 -400 0
-387 401 402 0
387 -401 0
387 -402 0
382 -379 -380 0
-382 379 0
-382 380 0
385 -379 -380 0
-385 379 0
-385 380 0
386 -384 -378 0
-386 384 0
-386 378 0
391 -389 -382 0
-391 389 0
-391 382 0
393 -388 -381 0
-393 388 0
-393 381 0
394 -383 -1 0
-394 383 0
-394 1 0
396 -390 -1 0
-396 390 0
-396 1 0
397 -391 -392 0
-397 391 0
-397 392 0
398 -2 -393 0
-398 2 0
-398 393 0
399 -394 -395 0
-399 394 0
-399 395 0
400 -2 -396 0
-400 2 0
-400 396 0
-383 -379 0
383 379 0
-388 -1 0
388 1 0
-389 -1 0
389 1 0
-392 -2 0
392 2 0
-395 -2 0
395 2 0
-384 -379 -380 0
-384 379 380 0
384 -379 380 0
384 379 -380 0
-390 -378 -384 0
-390 378 384 0
390 -378 384 0
390 378 -384 0

